(set-info :source |printed by MathSAT|)
(declare-fun invalid () Int)
(declare-fun call_illinois.g6 () Bool)
(declare-fun call_illinois.ite8 () Int)
(declare-fun call_illinois.ite () Int)
(declare-fun call_illinois.ite43 () Int)
(declare-fun call_illinois.ite11 () Int)
(declare-fun call_illinois.ite14 () Int)
(declare-fun call_illinois.ite2 () Int)
(declare-fun call_illinois.ite34 () Int)
(declare-fun call_illinois.ite25 () Int)
(declare-fun call_illinois.ite18 () Int)
(declare-fun param_e9 () Bool)
(declare-fun call_illinois.ite16 () Int)
(declare-fun param_init_invalid () Int)
(declare-fun call_illinois.invalid () Int)
(declare-fun call_illinois.ite42 () Int)
(declare-fun call_illinois.ite12 () Int)
(declare-fun call_illinois.ite44 () Int)
(declare-fun call_illinois.ite20 () Int)
(declare-fun env () Bool)
(declare-fun param_e2 () Bool)
(declare-fun call_illinois.ite3 () Int)
(declare-fun call_illinois.dirty () Int)
(declare-fun param_e7 () Bool)
(declare-fun param_e8 () Bool)
(declare-fun call_illinois.ite37 () Int)
(declare-fun call_illinois.ite35 () Int)
(declare-fun param_e3 () Bool)
(declare-fun call_illinois.ite40 () Int)
(declare-fun call_illinois.ite9 () Int)
(declare-fun call_illinois.ite24 () Int)
(declare-fun call_illinois.g5 () Bool)
(declare-fun call_illinois.ite13 () Int)
(declare-fun param_e4 () Bool)
(declare-fun call_illinois.ite4 () Int)
(declare-fun call_Sofar.Sofar () Bool)
(declare-fun param_e1 () Bool)
(declare-fun call_illinois.ite47 () Int)
(declare-fun call_illinois.ite19 () Int)
(declare-fun _OK_ () Bool)
(declare-fun call_excludes9.excludes () Bool)
(declare-fun call_illinois.ite36 () Int)
(declare-fun call_illinois.ite39 () Int)
(declare-fun param_e6 () Bool)
(declare-fun call_illinois.ite17 () Int)
(declare-fun dirty () Int)
(declare-fun call_illinois.ite27 () Int)
(declare-fun call_illinois.ite6 () Int)
(declare-fun call_illinois.ite7 () Int)
(declare-fun call_illinois.ite46 () Int)
(declare-fun call_illinois.ite32 () Int)
(declare-fun call_illinois.ite21 () Int)
(declare-fun flby () Bool)
(declare-fun call_First.First () Int)
(declare-fun call_illinois.exclusive () Int)
(declare-fun call_illinois.flby4 () Int)
(declare-fun call_illinois.ite45 () Int)
(declare-fun call_illinois.flby () Int)
(declare-fun call_illinois.ite10 () Int)
(declare-fun call_illinois.flby3 () Int)
(declare-fun call_illinois.ite26 () Int)
(declare-fun param_e5 () Bool)
(declare-fun call_illinois.ite31 () Int)
(declare-fun call_illinois.ite22 () Int)
(declare-fun call_illinois.ite29 () Int)
(declare-fun call_illinois.ite28 () Int)
(declare-fun call_First.flby () Int)
(declare-fun call_illinois.ite41 () Int)
(declare-fun call_illinois.shared () Int)
(declare-fun call_illinois.ite5 () Int)
(declare-fun call_illinois.flby2 () Int)
(declare-fun call_illinois.ite30 () Int)
(declare-fun call_illinois.ite23 () Int)
(declare-fun call_illinois.ite15 () Int)
(declare-fun shared () Int)
(declare-fun call_Sofar.flby () Bool)
(declare-fun exclusive () Int)
(declare-fun call_illinois.ite38 () Int)
(declare-fun call_illinois.ite33 () Int)
(define-fun .def_1336 () Bool (= call_First.flby call_First.First))
(define-fun .def_1334 () Bool (= call_Sofar.flby call_Sofar.Sofar))
(define-fun .def_1137 () Bool (not param_e2))
(define-fun .def_1118 () Bool (not param_e1))
(define-fun .def_1271 () Bool (and .def_1118 .def_1137))
(define-fun .def_1165 () Bool (not param_e3))
(define-fun .def_1272 () Bool (and .def_1165 .def_1271))
(define-fun .def_1191 () Bool (not param_e4))
(define-fun .def_1273 () Bool (and .def_1191 .def_1272))
(define-fun .def_1209 () Bool (not param_e5))
(define-fun .def_1274 () Bool (and .def_1209 .def_1273))
(define-fun .def_1234 () Bool (not param_e6))
(define-fun .def_1275 () Bool (and .def_1234 .def_1274))
(define-fun .def_1004 () Bool (not param_e7))
(define-fun .def_1276 () Bool (and .def_1004 .def_1275))
(define-fun .def_995 () Bool (not param_e8))
(define-fun .def_1277 () Bool (and .def_995 .def_1276))
(define-fun .def_984 () Bool (not param_e9))
(define-fun .def_1322 () Bool (and .def_984 .def_1277))
(define-fun .def_1314 () Bool (and param_e1 .def_1137))
(define-fun .def_1315 () Bool (and .def_1165 .def_1314))
(define-fun .def_1316 () Bool (and .def_1191 .def_1315))
(define-fun .def_1317 () Bool (and .def_1209 .def_1316))
(define-fun .def_1318 () Bool (and .def_1234 .def_1317))
(define-fun .def_1319 () Bool (and .def_1004 .def_1318))
(define-fun .def_1320 () Bool (and .def_995 .def_1319))
(define-fun .def_1321 () Bool (and .def_984 .def_1320))
(define-fun .def_1323 () Bool (or .def_1321 .def_1322))
(define-fun .def_1306 () Bool (and .def_1118 param_e2))
(define-fun .def_1307 () Bool (and .def_1165 .def_1306))
(define-fun .def_1308 () Bool (and .def_1191 .def_1307))
(define-fun .def_1309 () Bool (and .def_1209 .def_1308))
(define-fun .def_1310 () Bool (and .def_1234 .def_1309))
(define-fun .def_1311 () Bool (and .def_1004 .def_1310))
(define-fun .def_1312 () Bool (and .def_995 .def_1311))
(define-fun .def_1313 () Bool (and .def_984 .def_1312))
(define-fun .def_1324 () Bool (or .def_1313 .def_1323))
(define-fun .def_1299 () Bool (and param_e3 .def_1271))
(define-fun .def_1300 () Bool (and .def_1191 .def_1299))
(define-fun .def_1301 () Bool (and .def_1209 .def_1300))
(define-fun .def_1302 () Bool (and .def_1234 .def_1301))
(define-fun .def_1303 () Bool (and .def_1004 .def_1302))
(define-fun .def_1304 () Bool (and .def_995 .def_1303))
(define-fun .def_1305 () Bool (and .def_984 .def_1304))
(define-fun .def_1325 () Bool (or .def_1305 .def_1324))
(define-fun .def_1293 () Bool (and param_e4 .def_1272))
(define-fun .def_1294 () Bool (and .def_1209 .def_1293))
(define-fun .def_1295 () Bool (and .def_1234 .def_1294))
(define-fun .def_1296 () Bool (and .def_1004 .def_1295))
(define-fun .def_1297 () Bool (and .def_995 .def_1296))
(define-fun .def_1298 () Bool (and .def_984 .def_1297))
(define-fun .def_1326 () Bool (or .def_1298 .def_1325))
(define-fun .def_1288 () Bool (and param_e5 .def_1273))
(define-fun .def_1289 () Bool (and .def_1234 .def_1288))
(define-fun .def_1290 () Bool (and .def_1004 .def_1289))
(define-fun .def_1291 () Bool (and .def_995 .def_1290))
(define-fun .def_1292 () Bool (and .def_984 .def_1291))
(define-fun .def_1327 () Bool (or .def_1292 .def_1326))
(define-fun .def_1284 () Bool (and param_e6 .def_1274))
(define-fun .def_1285 () Bool (and .def_1004 .def_1284))
(define-fun .def_1286 () Bool (and .def_995 .def_1285))
(define-fun .def_1287 () Bool (and .def_984 .def_1286))
(define-fun .def_1328 () Bool (or .def_1287 .def_1327))
(define-fun .def_1281 () Bool (and param_e7 .def_1275))
(define-fun .def_1282 () Bool (and .def_995 .def_1281))
(define-fun .def_1283 () Bool (and .def_984 .def_1282))
(define-fun .def_1329 () Bool (or .def_1283 .def_1328))
(define-fun .def_1279 () Bool (and param_e8 .def_1276))
(define-fun .def_1280 () Bool (and .def_984 .def_1279))
(define-fun .def_1330 () Bool (or .def_1280 .def_1329))
(define-fun .def_1278 () Bool (and param_e9 .def_1277))
(define-fun .def_1331 () Bool (or .def_1278 .def_1330))
(define-fun .def_1332 () Bool (= call_excludes9.excludes .def_1331))
(define-fun .def_1269 () Bool (= call_illinois.flby4 call_illinois.shared))
(define-fun .def_1267 () Bool (= call_illinois.flby3 call_illinois.exclusive))
(define-fun .def_1265 () Bool (= call_illinois.flby2 call_illinois.dirty))
(define-fun .def_1263 () Bool (= call_illinois.flby call_illinois.invalid))
(define-fun .def_1259 () Bool (= call_illinois.ite12 call_illinois.ite7))
(define-fun .def_1260 () Bool (or .def_1004 .def_1259))
(define-fun .def_1256 () Bool (= call_illinois.ite11 call_illinois.ite12))
(define-fun .def_1257 () Bool (or param_e7 .def_1256))
(define-fun .def_1261 () Bool (and .def_1257 .def_1260))
(define-fun .def_1252 () Bool (= call_illinois.ite43 call_illinois.ite44))
(define-fun .def_1253 () Bool (or param_e6 .def_1252))
(define-fun .def_1249 () Bool (= call_illinois.ite41 call_illinois.ite44))
(define-fun .def_1250 () Bool (or .def_1234 .def_1249))
(define-fun .def_1246 () Bool (= call_illinois.ite33 call_illinois.ite34))
(define-fun .def_1247 () Bool (or param_e6 .def_1246))
(define-fun .def_1243 () Bool (= call_illinois.ite31 call_illinois.ite34))
(define-fun .def_1244 () Bool (or .def_1234 .def_1243))
(define-fun .def_1240 () Bool (= call_illinois.ite23 call_illinois.ite24))
(define-fun .def_1241 () Bool (or param_e6 .def_1240))
(define-fun .def_1237 () Bool (= call_illinois.ite21 call_illinois.ite24))
(define-fun .def_1238 () Bool (or .def_1234 .def_1237))
(define-fun .def_1233 () Bool (= call_illinois.ite13 call_illinois.ite6))
(define-fun .def_1235 () Bool (or .def_1233 .def_1234))
(define-fun .def_1229 () Bool (= call_illinois.ite13 call_illinois.ite12))
(define-fun .def_1231 () Bool (or .def_1229 param_e6))
(define-fun .def_1236 () Bool (and .def_1231 .def_1235))
(define-fun .def_1239 () Bool (and .def_1236 .def_1238))
(define-fun .def_1242 () Bool (and .def_1239 .def_1241))
(define-fun .def_1245 () Bool (and .def_1242 .def_1244))
(define-fun .def_1248 () Bool (and .def_1245 .def_1247))
(define-fun .def_1251 () Bool (and .def_1248 .def_1250))
(define-fun .def_1254 () Bool (and .def_1251 .def_1253))
(define-fun .def_1224 () Bool (= call_illinois.ite45 call_illinois.ite44))
(define-fun .def_1225 () Bool (or param_e5 .def_1224))
(define-fun .def_1220 () Bool (= call_illinois.ite40 call_illinois.ite45))
(define-fun .def_1221 () Bool (or .def_1209 .def_1220))
(define-fun .def_1217 () Bool (= call_illinois.ite25 call_illinois.ite24))
(define-fun .def_1218 () Bool (or param_e5 .def_1217))
(define-fun .def_1213 () Bool (= call_illinois.ite25 call_illinois.ite20))
(define-fun .def_1214 () Bool (or .def_1209 .def_1213))
(define-fun .def_1208 () Bool (= call_illinois.ite14 call_illinois.ite5))
(define-fun .def_1210 () Bool (or .def_1208 .def_1209))
(define-fun .def_1204 () Bool (= call_illinois.ite14 call_illinois.ite13))
(define-fun .def_1206 () Bool (or .def_1204 param_e5))
(define-fun .def_1211 () Bool (and .def_1206 .def_1210))
(define-fun .def_1215 () Bool (and .def_1211 .def_1214))
(define-fun .def_1219 () Bool (and .def_1215 .def_1218))
(define-fun .def_1222 () Bool (and .def_1219 .def_1221))
(define-fun .def_1226 () Bool (and .def_1222 .def_1225))
(define-fun .def_1199 () Bool (= call_illinois.ite35 call_illinois.ite34))
(define-fun .def_1200 () Bool (or param_e4 .def_1199))
(define-fun .def_1195 () Bool (= call_illinois.ite35 call_illinois.ite30))
(define-fun .def_1196 () Bool (or .def_1191 .def_1195))
(define-fun .def_1190 () Bool (= call_illinois.ite26 call_illinois.ite19))
(define-fun .def_1192 () Bool (or .def_1190 .def_1191))
(define-fun .def_1186 () Bool (= call_illinois.ite26 call_illinois.ite25))
(define-fun .def_1188 () Bool (or .def_1186 param_e4))
(define-fun .def_1193 () Bool (and .def_1188 .def_1192))
(define-fun .def_1197 () Bool (and .def_1193 .def_1196))
(define-fun .def_1201 () Bool (and .def_1197 .def_1200))
(define-fun .def_1181 () Bool (= call_illinois.ite46 call_illinois.ite45))
(define-fun .def_1182 () Bool (or param_e3 .def_1181))
(define-fun .def_1177 () Bool (= call_illinois.ite46 call_illinois.ite39))
(define-fun .def_1178 () Bool (or .def_1165 .def_1177))
(define-fun .def_1173 () Bool (= call_illinois.ite36 call_illinois.ite35))
(define-fun .def_1174 () Bool (or param_e3 .def_1173))
(define-fun .def_1169 () Bool (= call_illinois.ite36 call_illinois.ite29))
(define-fun .def_1170 () Bool (or .def_1165 .def_1169))
(define-fun .def_1164 () Bool (= call_illinois.ite15 call_illinois.ite4))
(define-fun .def_1166 () Bool (or .def_1164 .def_1165))
(define-fun .def_1160 () Bool (= call_illinois.ite15 call_illinois.ite14))
(define-fun .def_1162 () Bool (or .def_1160 param_e3))
(define-fun .def_1167 () Bool (and .def_1162 .def_1166))
(define-fun .def_1171 () Bool (and .def_1167 .def_1170))
(define-fun .def_1175 () Bool (and .def_1171 .def_1174))
(define-fun .def_1179 () Bool (and .def_1175 .def_1178))
(define-fun .def_1183 () Bool (and .def_1179 .def_1182))
(define-fun .def_1155 () Bool (= call_illinois.ite47 call_illinois.ite46))
(define-fun .def_1156 () Bool (or param_e2 .def_1155))
(define-fun .def_1151 () Bool (= call_illinois.ite38 call_illinois.ite47))
(define-fun .def_1152 () Bool (or .def_1137 .def_1151))
(define-fun .def_1146 () Bool (= call_illinois.ite27 call_illinois.ite26))
(define-fun .def_1147 () Bool (or param_e2 .def_1146))
(define-fun .def_1142 () Bool (= call_illinois.ite18 call_illinois.ite27))
(define-fun .def_1143 () Bool (or .def_1137 .def_1142))
(define-fun .def_1136 () Bool (= call_illinois.ite16 call_illinois.ite3))
(define-fun .def_1138 () Bool (or .def_1136 .def_1137))
(define-fun .def_1132 () Bool (= call_illinois.ite16 call_illinois.ite15))
(define-fun .def_1134 () Bool (or .def_1132 param_e2))
(define-fun .def_1139 () Bool (and .def_1134 .def_1138))
(define-fun .def_1144 () Bool (and .def_1139 .def_1143))
(define-fun .def_1148 () Bool (and .def_1144 .def_1147))
(define-fun .def_1153 () Bool (and .def_1148 .def_1152))
(define-fun .def_1157 () Bool (and .def_1153 .def_1156))
(define-fun .def_1127 () Bool (= call_illinois.ite37 call_illinois.ite36))
(define-fun .def_1128 () Bool (or param_e1 .def_1127))
(define-fun .def_1123 () Bool (= call_illinois.ite28 call_illinois.ite37))
(define-fun .def_1124 () Bool (or .def_1118 .def_1123))
(define-fun .def_1117 () Bool (= call_illinois.ite17 call_illinois.ite2))
(define-fun .def_1119 () Bool (or .def_1117 .def_1118))
(define-fun .def_1113 () Bool (= call_illinois.ite17 call_illinois.ite16))
(define-fun .def_1115 () Bool (or .def_1113 param_e1))
(define-fun .def_1120 () Bool (and .def_1115 .def_1119))
(define-fun .def_1125 () Bool (and .def_1120 .def_1124))
(define-fun .def_1129 () Bool (and .def_1125 .def_1128))
(define-fun .def_1107 () Bool (= call_illinois.ite param_init_invalid))
(define-fun .def_1041 () Bool (<= param_init_invalid 0))
(define-fun .def_1108 () Bool (or .def_1041 .def_1107))
(define-fun .def_1104 () Int (+ call_illinois.ite param_init_invalid))
(define-fun .def_1105 () Bool (= .def_1104 1))
(define-fun .def_1042 () Bool (not .def_1041))
(define-fun .def_1106 () Bool (or .def_1042 .def_1105))
(define-fun .def_1109 () Bool (and .def_1106 .def_1108))
(define-fun .def_1102 () Bool (= env call_Sofar.Sofar))
(define-fun .def_1099 () Bool (= shared call_illinois.shared))
(define-fun .def_1096 () Bool (= exclusive call_illinois.exclusive))
(define-fun .def_1093 () Bool (= dirty call_illinois.dirty))
(define-fun .def_1090 () Bool (= invalid call_illinois.invalid))
(define-fun .def_1085 () Bool (= call_illinois.ite11 call_illinois.ite8))
(define-fun .def_1086 () Bool (or .def_995 .def_1085))
(define-fun .def_1082 () Bool (= call_illinois.ite10 call_illinois.ite11))
(define-fun .def_1083 () Bool (or param_e8 .def_1082))
(define-fun .def_1087 () Bool (and .def_1083 .def_1086))
(define-fun .def_1077 () Bool (<= 0 exclusive))
(define-fun .def_1070 () Int (* (- 1) call_First.First))
(define-fun .def_1071 () Int (+ shared .def_1070))
(define-fun .def_1072 () Int (+ dirty .def_1071))
(define-fun .def_1073 () Int (+ invalid .def_1072))
(define-fun .def_1074 () Int (+ exclusive .def_1073))
(define-fun .def_1075 () Bool (= .def_1074 0))
(define-fun .def_1055 () Bool (<= 2 exclusive))
(define-fun .def_1056 () Bool (not .def_1055))
(define-fun .def_1057 () Bool (and flby .def_1056))
(define-fun .def_1076 () Bool (and .def_1057 .def_1075))
(define-fun .def_1078 () Bool (and .def_1076 .def_1077))
(define-fun .def_1053 () Bool (not env))
(define-fun .def_1079 () Bool (or .def_1053 .def_1078))
(define-fun .def_1080 () Bool (= _OK_ .def_1079))
(define-fun .def_1088 () Bool (and .def_1080 .def_1087))
(define-fun .def_1091 () Bool (and .def_1088 .def_1090))
(define-fun .def_1094 () Bool (and .def_1091 .def_1093))
(define-fun .def_1097 () Bool (and .def_1094 .def_1096))
(define-fun .def_1100 () Bool (and .def_1097 .def_1099))
(define-fun .def_1103 () Bool (and .def_1100 .def_1102))
(define-fun .def_1110 () Bool (and .def_1103 .def_1109))
(define-fun .def_1130 () Bool (and .def_1110 .def_1129))
(define-fun .def_1158 () Bool (and .def_1130 .def_1157))
(define-fun .def_1184 () Bool (and .def_1158 .def_1183))
(define-fun .def_1202 () Bool (and .def_1184 .def_1201))
(define-fun .def_1227 () Bool (and .def_1202 .def_1226))
(define-fun .def_1255 () Bool (and .def_1227 .def_1254))
(define-fun .def_1262 () Bool (and .def_1255 .def_1261))
(define-fun .def_1264 () Bool (and .def_1262 .def_1263))
(define-fun .def_1266 () Bool (and .def_1264 .def_1265))
(define-fun .def_1268 () Bool (and .def_1266 .def_1267))
(define-fun .def_1270 () Bool (and .def_1268 .def_1269))
(define-fun .def_1333 () Bool (and .def_1270 .def_1332))
(define-fun .def_1335 () Bool (and .def_1333 .def_1334))
(define-fun .def_1337 () Bool (and .def_1335 .def_1336))
(define-fun .def_1049 () Bool (= param_init_invalid call_First.flby))
(define-fun .def_1044 () Bool (and .def_1042 call_excludes9.excludes))
(define-fun .def_1046 () Bool (= .def_1044 call_Sofar.flby))
(define-fun .def_1038 () Bool (= call_illinois.flby4 0))
(define-fun .def_1035 () Bool (= call_illinois.flby3 0))
(define-fun .def_1032 () Bool (= call_illinois.flby2 0))
(define-fun .def_1029 () Bool (= call_illinois.ite call_illinois.flby))
(define-fun .def_1023 () Bool (= call_illinois.ite41 0))
(define-fun .def_1016 () Bool (not call_illinois.g6))
(define-fun .def_1024 () Bool (or .def_1016 .def_1023))
(define-fun .def_1019 () Bool (= call_illinois.ite21 1))
(define-fun .def_1020 () Bool (or .def_1016 .def_1019))
(define-fun .def_1014 () Bool (= call_illinois.ite31 0))
(define-fun .def_1017 () Bool (or .def_1014 .def_1016))
(define-fun .def_1021 () Bool (and .def_1017 .def_1020))
(define-fun .def_1025 () Bool (and .def_1021 .def_1024))
(define-fun .def_1010 () Bool (= call_illinois.ite40 0))
(define-fun .def_1008 () Bool (not call_illinois.g5))
(define-fun .def_1011 () Bool (or .def_1008 .def_1010))
(define-fun .def_1002 () Bool (= call_illinois.ite22 call_illinois.ite23))
(define-fun .def_1005 () Bool (or .def_1002 .def_1004))
(define-fun .def_993 () Bool (= call_illinois.ite42 call_illinois.ite43))
(define-fun .def_996 () Bool (or .def_993 .def_995))
(define-fun .def_988 () Bool (= call_illinois.ite9 call_illinois.ite10))
(define-fun .def_989 () Bool (or .def_984 .def_988))
(define-fun .def_982 () Bool (= call_illinois.ite32 call_illinois.ite33))
(define-fun .def_985 () Bool (or .def_982 .def_984))
(define-fun .def_990 () Bool (and .def_985 .def_989))
(define-fun .def_997 () Bool (and .def_990 .def_996))
(define-fun .def_999 () Bool (and .def_997 flby))
(define-fun .def_1006 () Bool (and .def_999 .def_1005))
(define-fun .def_1012 () Bool (and .def_1006 .def_1011))
(define-fun .def_1026 () Bool (and .def_1012 .def_1025))
(define-fun .def_1030 () Bool (and .def_1026 .def_1029))
(define-fun .def_1033 () Bool (and .def_1030 .def_1032))
(define-fun .def_1036 () Bool (and .def_1033 .def_1035))
(define-fun .def_1039 () Bool (and .def_1036 .def_1038))
(define-fun .def_1047 () Bool (and .def_1039 .def_1046))
(define-fun .def_1050 () Bool (and .def_1047 .def_1049))
(define-fun .def_1338 () Bool (and .def_1050 .def_1337))
(assert .def_1338)
